c File: flat50_3_0.col
c
c SOURCE: Joseph Culberson (joe@cs.ualberta.ca)
c DESCRIPTION: Quasi-random coloring problem
c              generated with flatness = 0
c                             probability = 0.139
c                             known coloring = 3
c                             random seed = 1833
c              Creation Date:  Tue Jun  9 12:19:03 1998
c Maximum degree = 8 Minimum degree = 1
c p edge 50 115
c cnf created by edge2cnf
p cnf 150 545
-1 -2 0
-1 -3 0
-2 -3 0
1 2 3 0
-4 -5 0
-4 -6 0
-5 -6 0
4 5 6 0
-7 -8 0
-7 -9 0
-8 -9 0
7 8 9 0
-10 -11 0
-10 -12 0
-11 -12 0
10 11 12 0
-13 -14 0
-13 -15 0
-14 -15 0
13 14 15 0
-16 -17 0
-16 -18 0
-17 -18 0
16 17 18 0
-19 -20 0
-19 -21 0
-20 -21 0
19 20 21 0
-22 -23 0
-22 -24 0
-23 -24 0
22 23 24 0
-25 -26 0
-25 -27 0
-26 -27 0
25 26 27 0
-28 -29 0
-28 -30 0
-29 -30 0
28 29 30 0
-31 -32 0
-31 -33 0
-32 -33 0
31 32 33 0
-34 -35 0
-34 -36 0
-35 -36 0
34 35 36 0
-37 -38 0
-37 -39 0
-38 -39 0
37 38 39 0
-40 -41 0
-40 -42 0
-41 -42 0
40 41 42 0
-43 -44 0
-43 -45 0
-44 -45 0
43 44 45 0
-46 -47 0
-46 -48 0
-47 -48 0
46 47 48 0
-49 -50 0
-49 -51 0
-50 -51 0
49 50 51 0
-52 -53 0
-52 -54 0
-53 -54 0
52 53 54 0
-55 -56 0
-55 -57 0
-56 -57 0
55 56 57 0
-58 -59 0
-58 -60 0
-59 -60 0
58 59 60 0
-61 -62 0
-61 -63 0
-62 -63 0
61 62 63 0
-64 -65 0
-64 -66 0
-65 -66 0
64 65 66 0
-67 -68 0
-67 -69 0
-68 -69 0
67 68 69 0
-70 -71 0
-70 -72 0
-71 -72 0
70 71 72 0
-73 -74 0
-73 -75 0
-74 -75 0
73 74 75 0
-76 -77 0
-76 -78 0
-77 -78 0
76 77 78 0
-79 -80 0
-79 -81 0
-80 -81 0
79 80 81 0
-82 -83 0
-82 -84 0
-83 -84 0
82 83 84 0
-85 -86 0
-85 -87 0
-86 -87 0
85 86 87 0
-88 -89 0
-88 -90 0
-89 -90 0
88 89 90 0
-91 -92 0
-91 -93 0
-92 -93 0
91 92 93 0
-94 -95 0
-94 -96 0
-95 -96 0
94 95 96 0
-97 -98 0
-97 -99 0
-98 -99 0
97 98 99 0
-100 -101 0
-100 -102 0
-101 -102 0
100 101 102 0
-103 -104 0
-103 -105 0
-104 -105 0
103 104 105 0
-106 -107 0
-106 -108 0
-107 -108 0
106 107 108 0
-109 -110 0
-109 -111 0
-110 -111 0
109 110 111 0
-112 -113 0
-112 -114 0
-113 -114 0
112 113 114 0
-115 -116 0
-115 -117 0
-116 -117 0
115 116 117 0
-118 -119 0
-118 -120 0
-119 -120 0
118 119 120 0
-121 -122 0
-121 -123 0
-122 -123 0
121 122 123 0
-124 -125 0
-124 -126 0
-125 -126 0
124 125 126 0
-127 -128 0
-127 -129 0
-128 -129 0
127 128 129 0
-130 -131 0
-130 -132 0
-131 -132 0
130 131 132 0
-133 -134 0
-133 -135 0
-134 -135 0
133 134 135 0
-136 -137 0
-136 -138 0
-137 -138 0
136 137 138 0
-139 -140 0
-139 -141 0
-140 -141 0
139 140 141 0
-142 -143 0
-142 -144 0
-143 -144 0
142 143 144 0
-145 -146 0
-145 -147 0
-146 -147 0
145 146 147 0
-148 -149 0
-148 -150 0
-149 -150 0
148 149 150 0
-64 -1 0
-65 -2 0
-66 -3 0
-76 -1 0
-77 -2 0
-78 -3 0
-82 -1 0
-83 -2 0
-84 -3 0
-52 -4 0
-53 -5 0
-54 -6 0
-58 -4 0
-59 -5 0
-60 -6 0
-67 -4 0
-68 -5 0
-69 -6 0
-85 -4 0
-86 -5 0
-87 -6 0
-106 -4 0
-107 -5 0
-108 -6 0
-112 -4 0
-113 -5 0
-114 -6 0
-115 -4 0
-116 -5 0
-117 -6 0
-148 -4 0
-149 -5 0
-150 -6 0
-73 -7 0
-74 -8 0
-75 -9 0
-76 -7 0
-77 -8 0
-78 -9 0
-103 -7 0
-104 -8 0
-105 -9 0
-106 -7 0
-107 -8 0
-108 -9 0
-52 -10 0
-53 -11 0
-54 -12 0
-55 -10 0
-56 -11 0
-57 -12 0
-139 -10 0
-140 -11 0
-141 -12 0
-145 -10 0
-146 -11 0
-147 -12 0
-73 -13 0
-74 -14 0
-75 -15 0
-76 -13 0
-77 -14 0
-78 -15 0
-112 -13 0
-113 -14 0
-114 -15 0
-115 -13 0
-116 -14 0
-117 -15 0
-127 -13 0
-128 -14 0
-129 -15 0
-52 -16 0
-53 -17 0
-54 -18 0
-61 -16 0
-62 -17 0
-63 -18 0
-97 -16 0
-98 -17 0
-99 -18 0
-127 -16 0
-128 -17 0
-129 -18 0
-61 -19 0
-62 -20 0
-63 -21 0
-73 -19 0
-74 -20 0
-75 -21 0
-100 -19 0
-101 -20 0
-102 -21 0
-106 -19 0
-107 -20 0
-108 -21 0
-112 -19 0
-113 -20 0
-114 -21 0
-136 -19 0
-137 -20 0
-138 -21 0
-145 -19 0
-146 -20 0
-147 -21 0
-88 -22 0
-89 -23 0
-90 -24 0
-94 -22 0
-95 -23 0
-96 -24 0
-55 -25 0
-56 -26 0
-57 -27 0
-70 -25 0
-71 -26 0
-72 -27 0
-130 -25 0
-131 -26 0
-132 -27 0
-136 -25 0
-137 -26 0
-138 -27 0
-139 -25 0
-140 -26 0
-141 -27 0
-109 -28 0
-110 -29 0
-111 -30 0
-133 -28 0
-134 -29 0
-135 -30 0
-94 -31 0
-95 -32 0
-96 -33 0
-103 -31 0
-104 -32 0
-105 -33 0
-124 -31 0
-125 -32 0
-126 -33 0
-103 -34 0
-104 -35 0
-105 -36 0
-127 -34 0
-128 -35 0
-129 -36 0
-130 -34 0
-131 -35 0
-132 -36 0
-139 -34 0
-140 -35 0
-141 -36 0
-85 -37 0
-86 -38 0
-87 -39 0
-133 -37 0
-134 -38 0
-135 -39 0
-58 -40 0
-59 -41 0
-60 -42 0
-73 -40 0
-74 -41 0
-75 -42 0
-82 -40 0
-83 -41 0
-84 -42 0
-97 -40 0
-98 -41 0
-99 -42 0
-103 -40 0
-104 -41 0
-105 -42 0
-115 -40 0
-116 -41 0
-117 -42 0
-70 -43 0
-71 -44 0
-72 -45 0
-79 -43 0
-80 -44 0
-81 -45 0
-85 -43 0
-86 -44 0
-87 -45 0
-91 -43 0
-92 -44 0
-93 -45 0
-112 -43 0
-113 -44 0
-114 -45 0
-142 -43 0
-143 -44 0
-144 -45 0
-61 -46 0
-62 -47 0
-63 -48 0
-70 -46 0
-71 -47 0
-72 -48 0
-79 -46 0
-80 -47 0
-81 -48 0
-85 -46 0
-86 -47 0
-87 -48 0
-121 -46 0
-122 -47 0
-123 -48 0
-61 -49 0
-62 -50 0
-63 -51 0
-64 -49 0
-65 -50 0
-66 -51 0
-70 -49 0
-71 -50 0
-72 -51 0
-106 -49 0
-107 -50 0
-108 -51 0
-124 -49 0
-125 -50 0
-126 -51 0
-136 -49 0
-137 -50 0
-138 -51 0
-139 -49 0
-140 -50 0
-141 -51 0
-106 -52 0
-107 -53 0
-108 -54 0
-109 -55 0
-110 -56 0
-111 -57 0
-130 -55 0
-131 -56 0
-132 -57 0
-103 -58 0
-104 -59 0
-105 -60 0
-130 -58 0
-131 -59 0
-132 -60 0
-133 -58 0
-134 -59 0
-135 -60 0
-145 -58 0
-146 -59 0
-147 -60 0
-103 -61 0
-104 -62 0
-105 -63 0
-124 -61 0
-125 -62 0
-126 -63 0
-139 -61 0
-140 -62 0
-141 -63 0
-142 -61 0
-143 -62 0
-144 -63 0
-103 -64 0
-104 -65 0
-105 -66 0
-106 -64 0
-107 -65 0
-108 -66 0
-133 -64 0
-134 -65 0
-135 -66 0
-148 -64 0
-149 -65 0
-150 -66 0
-115 -67 0
-116 -68 0
-117 -69 0
-118 -67 0
-119 -68 0
-120 -69 0
-124 -67 0
-125 -68 0
-126 -69 0
-130 -67 0
-131 -68 0
-132 -69 0
-136 -70 0
-137 -71 0
-138 -72 0
-139 -73 0
-140 -74 0
-141 -75 0
-115 -76 0
-116 -77 0
-117 -78 0
-130 -76 0
-131 -77 0
-132 -78 0
-139 -76 0
-140 -77 0
-141 -78 0
-124 -82 0
-125 -83 0
-126 -84 0
-127 -82 0
-128 -83 0
-129 -84 0
-127 -85 0
-128 -86 0
-129 -87 0
-148 -85 0
-149 -86 0
-150 -87 0
-109 -88 0
-110 -89 0
-111 -90 0
-133 -88 0
-134 -89 0
-135 -90 0
-142 -91 0
-143 -92 0
-144 -93 0
-103 -94 0
-104 -95 0
-105 -96 0
-115 -94 0
-116 -95 0
-117 -96 0
-124 -94 0
-125 -95 0
-126 -96 0
-139 -94 0
-140 -95 0
-141 -96 0
-109 -97 0
-110 -98 0
-111 -99 0
-115 -97 0
-116 -98 0
-117 -99 0
-136 -97 0
-137 -98 0
-138 -99 0
